certificates/rado_a9_c166_N25.cnf
c Rad2 upper bound instance: x1 + 9*x2 - x3 = 166, interval [1,25]
p cnf 25 136
1 6 19 0
-1 -6 -19 0
1 15 20 0
-1 -15 -20 0
1 21 24 0
-1 -21 -24 0
2 7 19 0
-2 -7 -19 0
2 16 20 0
-2 -16 -20 0
2 21 25 0
-2 -21 -25 0
3 8 19 0
-3 -8 -19 0
3 17 20 0
-3 -17 -20 0
4 9 19 0
-4 -9 -19 0
4 18 20 0
-4 -18 -20 0
1 5 18 0
-1 -5 -18 0
5 10 19 0
-5 -10 -19 0
5 19 20 0
-5 -19 -20 0
2 6 18 0
-2 -6 -18 0
6 11 19 0
-6 -11 -19 0
6 20 0
-6 -20 0
3 7 18 0
-3 -7 -18 0
7 12 19 0
-7 -12 -19 0
7 20 21 0
-7 -20 -21 0
4 8 18 0
-4 -8 -18 0
8 13 19 0
-8 -13 -19 0
8 20 22 0
-8 -20 -22 0
5 9 18 0
-5 -9 -18 0
9 14 19 0
-9 -14 -19 0
9 20 23 0
-9 -20 -23 0
6 10 18 0
-6 -10 -18 0
10 15 19 0
-10 -15 -19 0
10 20 24 0
-10 -20 -24 0
7 11 18 0
-7 -11 -18 0
11 16 19 0
-11 -16 -19 0
11 20 25 0
-11 -20 -25 0
8 12 18 0
-8 -12 -18 0
12 17 19 0
-12 -17 -19 0
9 13 18 0
-9 -13 -18 0
13 18 19 0
-13 -18 -19 0
1 14 17 0
-1 -14 -17 0
10 14 18 0
-10 -14 -18 0
14 19 0
-14 -19 0
2 15 17 0
-2 -15 -17 0
11 15 18 0
-11 -15 -18 0
15 19 20 0
-15 -19 -20 0
3 16 17 0
-3 -16 -17 0
12 16 18 0
-12 -16 -18 0
16 19 21 0
-16 -19 -21 0
4 17 0
-4 -17 0
13 17 18 0
-13 -17 -18 0
17 19 22 0
-17 -19 -22 0
5 17 18 0
-5 -17 -18 0
14 18 0
-14 -18 0
18 19 23 0
-18 -19 -23 0
6 17 19 0
-6 -17 -19 0
15 18 19 0
-15 -18 -19 0
19 24 0
-19 -24 0
7 17 20 0
-7 -17 -20 0
16 18 20 0
-16 -18 -20 0
19 20 25 0
-19 -20 -25 0
8 17 21 0
-8 -17 -21 0
17 18 21 0
-17 -18 -21 0
9 17 22 0
-9 -17 -22 0
18 22 0
-18 -22 0
1 16 23 0
-1 -16 -23 0
10 17 23 0
-10 -17 -23 0
2 16 24 0
-2 -16 -24 0
11 17 24 0
-11 -17 -24 0
18 20 24 0
-18 -20 -24 0
3 16 25 0
-3 -16 -25 0
12 17 25 0
-12 -17 -25 0
18 21 25 0
-18 -21 -25 0
