certificates/rado_a9_c166_N25.drat
20 18 -25 0
19 -25 0
-25 0
20 0
-6 0
-18 0
14 0
22 0
21 0
2 0
10 0
-19 0
-8 0
-7 0
-16 0
-24 0
0
